# This script runs a reversible-scaling thermodynamic integration for the calculation of the temperature dependence of the free energy of bcc iron. See job.sh for the variables that need to be passed on the command line.


#--------------------------- Simulation variables -----------------------------#
  # Initalizes the random number generator.
  variable         rnd equal round(random(0,999,${RANDOM}))

  # Simulation control parameters.
  variable         t_eq equal 5000 # Equilibration time.
  variable         t equal 20000 # Switching time.
  variable         T equal 100 # Simulation temperature.
#------------------------------------------------------------------------------#


#---------------------------- Atomic setup ------------------------------------#
  units            metal

  # Create atoms.
  lattice          bcc 2.8841
  region           sim_box block 0 5 0 5 0 5
  create_box       1 sim_box
  create_atoms     1 box

  # Define Interatomic potential.
  pair_style       eam
  pair_coeff       * * ../Fe.eam
  neigh_modify     delay 0
  timestep         0.002
#------------------------------------------------------------------------------#


#----------------------------- Run simulation ---------------------------------#
  # Setup thermo output.
  thermo_style     custom step pe
  thermo           0

  # Integrator for barostat and thermostat.
  fix              f1 all nph iso 0 0 1
  fix              f2 all temp/csvr ${T} ${T} 0.1 ${rnd}

  # Initial temperature to accelerate equilibration.
  variable         rnd equal round(random(0,666,0)) # Generates new rnd #.
  variable         T0 equal 2*${T}
  velocity         all create ${T0} ${rnd} dist gaussian

  # Forward integration.
  run              ${t_eq}
  print            "$(pe/atoms) 1" file data/forward.dat
  variable         lambda equal 1/(1+(elapsed/${t})*(1600/$T-1))
  fix              f3 all adapt 1 pair eam scale * * v_lambda
  fix              f4 all print 1 "$(pe/atoms) ${lambda}" screen no &
                   append data/forward.dat title "# pe lambda"
  run              ${t}
  unfix            f3
  unfix            f4

  # Backward integration. 
  run              ${t_eq}
  print            "$(pe/atoms) $(v_T/1600)" file data/backward.dat
  variable         lambda equal 1/(1+(1-(elapsed/${t}))*(1600/$T-1))
  fix              f3 all adapt 1 pair eam scale * * v_lambda
  fix              f4 all print 1 "$(pe/atoms) ${lambda}" screen no &
                   append data/backward.dat title "# pe lambda"
  run              ${t}
#------------------------------------------------------------------------------#
